unsat
(:cnf-encoding-aux-vars   35
 :eliminated-applications 4
 :eliminated-vars         57
 :max-memory              18.35
 :memory                  18.13
 :nlsat-conflicts         11
 :nlsat-decisions         11
 :nlsat-propagations      57
 :num-allocs              56053
 :rlimit-count            33094
 :time                    0.01
 :total-time              0.01)
